
%FILE DATA:	Soccer Computational Problem for MiniZinc Models	%
%AUTHOR:	Jack Wall	%
%CONTACT:  	116397063@umail.ucc.ie			%
%LAST UPDATE:	03/02/2020, 16:22:15						%
%DESCRIPTION: 	224 games played with 16 games left				%


n=16; %number of teams

%Games to play
games=[|7,4|2,1|16,9|12,16|9,10|13,15|6,3|16,8|8,11|10,9|8,7|2,12|8,13|4,13|2,16|3,6|];

%Initial points
iPoints=[32,27,27,31,38,35,30,53,44,42,39,37,38,48,39,30];

%POSITION CONSTRAINTS
% [|teamID, operator, position|...]
% operators index:
%  1 for =  operator
%  2 for >  operator
%  3 for >= operator
%  4 for <  operator
%  5 for <= operator
positionConstraints=[|8,4,2|14,2,1|13,1,3|10,5,4|];